% Auto-generated by scripts/generate_dzn.py
% problem_type   = regex
% instance       = regex_24
% source_json    = instances_json/1_medium_blowup/regex_24.json
% blowup         = 9.470588235294118
% representation = DFA

mode = 0;

var_count = 35;
Q = 322;
S = 3;
q0 = 1;
F = {200, 201, 202, 203, 204, 205, 206, 207, 208, 209, 210, 211, 212, 213, 214, 215, 216, 217, 218, 219, 220, 221, 222, 223, 224, 225, 226, 227, 228, 229, 230, 231, 232, 233, 234, 235, 236, 237, 238, 239, 240, 241, 242, 243, 244, 245, 246, 247, 248, 249, 250, 251, 252, 253, 254, 255, 256, 257, 258, 259, 260, 261, 262, 263, 264, 265, 266, 267, 268, 269, 270, 271, 272, 273, 274, 275, 276, 277, 278, 279, 280, 281, 282, 283, 284, 285, 286, 287, 288, 289, 290, 291, 292, 293, 294, 295, 296, 297, 298, 299, 300, 301, 302, 303, 304, 305, 306, 307, 308, 309, 310, 311, 312, 313, 314, 315, 316, 317, 318, 319, 320, 321, 322};
d_dfa = array2d(1..322, 1..3, [
  2, 1, 1,
  2, 1, 3,
  4, 1, 1,
  7, 6, 5,
  9, 8, 8,
  10, 8, 8,
  10, 8, 11,
  13, 12, 12,
  16, 15, 14,
  13, 12, 17,
  18, 12, 12,
  20, 19, 19,
  20, 19, 21,
  23, 22, 22,
  24, 22, 22,
  24, 22, 25,
  26, 19, 19,
  29, 28, 27,
  31, 30, 30,
  31, 30, 32,
  33, 30, 30,
  35, 34, 34,
  38, 37, 36,
  35, 34, 39,
  40, 34, 34,
  43, 42, 41,
  45, 44, 44,
  46, 44, 44,
  46, 44, 47,
  49, 48, 48,
  49, 48, 50,
  51, 48, 48,
  54, 53, 52,
  56, 55, 55,
  56, 55, 57,
  59, 58, 58,
  60, 58, 58,
  60, 58, 61,
  62, 55, 55,
  65, 64, 63,
  67, 66, 66,
  68, 66, 66,
  68, 66, 69,
  71, 70, 70,
  74, 73, 72,
  71, 70, 75,
  76, 70, 70,
  78, 77, 77,
  78, 77, 79,
  80, 77, 77,
  83, 82, 81,
  85, 84, 84,
  86, 84, 84,
  86, 84, 87,
  89, 88, 88,
  89, 88, 90,
  91, 88, 88,
  93, 92, 92,
  96, 95, 94,
  93, 92, 97,
  98, 92, 92,
  101, 100, 99,
  103, 102, 102,
  104, 102, 102,
  104, 102, 105,
  107, 106, 106,
  110, 109, 108,
  107, 106, 111,
  112, 106, 106,
  114, 113, 113,
  114, 113, 115,
  117, 116, 116,
  118, 116, 116,
  118, 116, 119,
  120, 113, 113,
  123, 122, 121,
  125, 124, 124,
  125, 124, 126,
  127, 124, 124,
  130, 129, 128,
  132, 131, 131,
  133, 131, 131,
  133, 131, 134,
  136, 135, 135,
  139, 138, 137,
  136, 135, 140,
  141, 135, 135,
  143, 142, 142,
  143, 142, 144,
  145, 142, 142,
  148, 147, 146,
  150, 149, 149,
  150, 149, 151,
  153, 152, 152,
  154, 152, 152,
  154, 152, 155,
  156, 149, 149,
  159, 158, 157,
  161, 160, 160,
  162, 160, 160,
  162, 160, 163,
  165, 164, 164,
  168, 167, 166,
  165, 164, 169,
  170, 164, 164,
  172, 171, 171,
  172, 171, 173,
  175, 174, 174,
  176, 174, 174,
  176, 174, 177,
  178, 171, 171,
  181, 180, 179,
  183, 182, 182,
  183, 182, 184,
  185, 182, 182,
  187, 186, 186,
  190, 189, 188,
  187, 186, 191,
  192, 186, 186,
  195, 194, 193,
  197, 196, 196,
  198, 196, 196,
  198, 196, 199,
  201, 200, 200,
  201, 200, 202,
  203, 200, 200,
  206, 205, 204,
  208, 207, 207,
  209, 207, 207,
  209, 207, 210,
  212, 211, 211,
  215, 214, 213,
  212, 211, 216,
  217, 211, 211,
  219, 218, 218,
  219, 218, 220,
  222, 221, 221,
  223, 221, 221,
  223, 221, 224,
  225, 218, 218,
  228, 227, 226,
  230, 229, 229,
  230, 229, 231,
  232, 229, 229,
  235, 234, 233,
  237, 236, 236,
  238, 236, 236,
  238, 236, 239,
  241, 240, 240,
  241, 240, 242,
  243, 240, 240,
  245, 244, 244,
  248, 247, 246,
  245, 244, 249,
  250, 244, 244,
  253, 252, 251,
  255, 254, 254,
  256, 254, 254,
  256, 254, 257,
  259, 258, 258,
  262, 261, 260,
  259, 258, 263,
  264, 258, 258,
  266, 265, 265,
  266, 265, 267,
  269, 268, 268,
  270, 268, 268,
  270, 268, 271,
  272, 265, 265,
  275, 274, 273,
  277, 276, 276,
  277, 276, 278,
  279, 276, 276,
  281, 280, 280,
  284, 283, 282,
  281, 280, 285,
  286, 280, 280,
  289, 288, 287,
  291, 290, 290,
  292, 290, 290,
  292, 290, 293,
  295, 294, 294,
  295, 294, 296,
  297, 294, 294,
  300, 299, 298,
  302, 301, 301,
  302, 301, 303,
  305, 304, 304,
  306, 304, 304,
  306, 304, 307,
  308, 301, 301,
  311, 310, 309,
  313, 312, 312,
  314, 312, 312,
  314, 312, 315,
  317, 316, 316,
  320, 319, 318,
  317, 316, 321,
  322, 316, 316,
  2, 1, 1,
  2, 1, 3,
  4, 1, 1,
  7, 6, 5,
  9, 8, 8,
  10, 8, 8,
  10, 8, 11,
  13, 12, 12,
  16, 15, 14,
  13, 12, 17,
  18, 12, 12,
  20, 19, 19,
  20, 19, 21,
  23, 22, 22,
  24, 22, 22,
  24, 22, 25,
  26, 19, 19,
  29, 28, 27,
  31, 30, 30,
  31, 30, 32,
  33, 30, 30,
  35, 34, 34,
  38, 37, 36,
  35, 34, 39,
  40, 34, 34,
  43, 42, 41,
  45, 44, 44,
  46, 44, 44,
  46, 44, 47,
  125, 124, 124,
  125, 124, 126,
  127, 124, 124,
  130, 129, 128,
  132, 131, 131,
  133, 131, 131,
  133, 131, 134,
  136, 135, 135,
  139, 138, 137,
  136, 135, 140,
  141, 135, 135,
  143, 142, 142,
  143, 142, 144,
  145, 142, 142,
  148, 147, 146,
  150, 149, 149,
  150, 149, 151,
  153, 152, 152,
  154, 152, 152,
  154, 152, 155,
  156, 149, 149,
  159, 158, 157,
  161, 160, 160,
  162, 160, 160,
  162, 160, 163,
  165, 164, 164,
  168, 167, 166,
  165, 164, 169,
  170, 164, 164,
  172, 171, 171,
  172, 171, 173,
  175, 174, 174,
  176, 174, 174,
  176, 174, 177,
  178, 171, 171,
  181, 180, 179,
  183, 182, 182,
  183, 182, 184,
  185, 182, 182,
  187, 186, 186,
  190, 189, 188,
  187, 186, 191,
  192, 186, 186,
  195, 194, 193,
  197, 196, 196,
  198, 196, 196,
  198, 196, 199,
  49, 48, 48,
  49, 48, 50,
  51, 48, 48,
  54, 53, 52,
  56, 55, 55,
  56, 55, 57,
  59, 58, 58,
  60, 58, 58,
  60, 58, 61,
  62, 55, 55,
  65, 64, 63,
  67, 66, 66,
  68, 66, 66,
  68, 66, 69,
  71, 70, 70,
  74, 73, 72,
  71, 70, 75,
  76, 70, 70,
  78, 77, 77,
  78, 77, 79,
  80, 77, 77,
  83, 82, 81,
  85, 84, 84,
  86, 84, 84,
  86, 84, 87,
  89, 88, 88,
  89, 88, 90,
  91, 88, 88,
  93, 92, 92,
  96, 95, 94,
  93, 92, 97,
  98, 92, 92,
  101, 100, 99,
  103, 102, 102,
  104, 102, 102,
  104, 102, 105,
  107, 106, 106,
  110, 109, 108,
  107, 106, 111,
  112, 106, 106,
  114, 113, 113,
  114, 113, 115,
  117, 116, 116,
  118, 116, 116,
  118, 116, 119,
  120, 113, 113,
  123, 122, 121
]);
d_nfa = array2d(1..322, 1..3, [
  {}, {}, {},
  {}, {}, {},
  {}, {}, {},
  {}, {}, {},
  {}, {}, {},
  {}, {}, {},
  {}, {}, {},
  {}, {}, {},
  {}, {}, {},
  {}, {}, {},
  {}, {}, {},
  {}, {}, {},
  {}, {}, {},
  {}, {}, {},
  {}, {}, {},
  {}, {}, {},
  {}, {}, {},
  {}, {}, {},
  {}, {}, {},
  {}, {}, {},
  {}, {}, {},
  {}, {}, {},
  {}, {}, {},
  {}, {}, {},
  {}, {}, {},
  {}, {}, {},
  {}, {}, {},
  {}, {}, {},
  {}, {}, {},
  {}, {}, {},
  {}, {}, {},
  {}, {}, {},
  {}, {}, {},
  {}, {}, {},
  {}, {}, {},
  {}, {}, {},
  {}, {}, {},
  {}, {}, {},
  {}, {}, {},
  {}, {}, {},
  {}, {}, {},
  {}, {}, {},
  {}, {}, {},
  {}, {}, {},
  {}, {}, {},
  {}, {}, {},
  {}, {}, {},
  {}, {}, {},
  {}, {}, {},
  {}, {}, {},
  {}, {}, {},
  {}, {}, {},
  {}, {}, {},
  {}, {}, {},
  {}, {}, {},
  {}, {}, {},
  {}, {}, {},
  {}, {}, {},
  {}, {}, {},
  {}, {}, {},
  {}, {}, {},
  {}, {}, {},
  {}, {}, {},
  {}, {}, {},
  {}, {}, {},
  {}, {}, {},
  {}, {}, {},
  {}, {}, {},
  {}, {}, {},
  {}, {}, {},
  {}, {}, {},
  {}, {}, {},
  {}, {}, {},
  {}, {}, {},
  {}, {}, {},
  {}, {}, {},
  {}, {}, {},
  {}, {}, {},
  {}, {}, {},
  {}, {}, {},
  {}, {}, {},
  {}, {}, {},
  {}, {}, {},
  {}, {}, {},
  {}, {}, {},
  {}, {}, {},
  {}, {}, {},
  {}, {}, {},
  {}, {}, {},
  {}, {}, {},
  {}, {}, {},
  {}, {}, {},
  {}, {}, {},
  {}, {}, {},
  {}, {}, {},
  {}, {}, {},
  {}, {}, {},
  {}, {}, {},
  {}, {}, {},
  {}, {}, {},
  {}, {}, {},
  {}, {}, {},
  {}, {}, {},
  {}, {}, {},
  {}, {}, {},
  {}, {}, {},
  {}, {}, {},
  {}, {}, {},
  {}, {}, {},
  {}, {}, {},
  {}, {}, {},
  {}, {}, {},
  {}, {}, {},
  {}, {}, {},
  {}, {}, {},
  {}, {}, {},
  {}, {}, {},
  {}, {}, {},
  {}, {}, {},
  {}, {}, {},
  {}, {}, {},
  {}, {}, {},
  {}, {}, {},
  {}, {}, {},
  {}, {}, {},
  {}, {}, {},
  {}, {}, {},
  {}, {}, {},
  {}, {}, {},
  {}, {}, {},
  {}, {}, {},
  {}, {}, {},
  {}, {}, {},
  {}, {}, {},
  {}, {}, {},
  {}, {}, {},
  {}, {}, {},
  {}, {}, {},
  {}, {}, {},
  {}, {}, {},
  {}, {}, {},
  {}, {}, {},
  {}, {}, {},
  {}, {}, {},
  {}, {}, {},
  {}, {}, {},
  {}, {}, {},
  {}, {}, {},
  {}, {}, {},
  {}, {}, {},
  {}, {}, {},
  {}, {}, {},
  {}, {}, {},
  {}, {}, {},
  {}, {}, {},
  {}, {}, {},
  {}, {}, {},
  {}, {}, {},
  {}, {}, {},
  {}, {}, {},
  {}, {}, {},
  {}, {}, {},
  {}, {}, {},
  {}, {}, {},
  {}, {}, {},
  {}, {}, {},
  {}, {}, {},
  {}, {}, {},
  {}, {}, {},
  {}, {}, {},
  {}, {}, {},
  {}, {}, {},
  {}, {}, {},
  {}, {}, {},
  {}, {}, {},
  {}, {}, {},
  {}, {}, {},
  {}, {}, {},
  {}, {}, {},
  {}, {}, {},
  {}, {}, {},
  {}, {}, {},
  {}, {}, {},
  {}, {}, {},
  {}, {}, {},
  {}, {}, {},
  {}, {}, {},
  {}, {}, {},
  {}, {}, {},
  {}, {}, {},
  {}, {}, {},
  {}, {}, {},
  {}, {}, {},
  {}, {}, {},
  {}, {}, {},
  {}, {}, {},
  {}, {}, {},
  {}, {}, {},
  {}, {}, {},
  {}, {}, {},
  {}, {}, {},
  {}, {}, {},
  {}, {}, {},
  {}, {}, {},
  {}, {}, {},
  {}, {}, {},
  {}, {}, {},
  {}, {}, {},
  {}, {}, {},
  {}, {}, {},
  {}, {}, {},
  {}, {}, {},
  {}, {}, {},
  {}, {}, {},
  {}, {}, {},
  {}, {}, {},
  {}, {}, {},
  {}, {}, {},
  {}, {}, {},
  {}, {}, {},
  {}, {}, {},
  {}, {}, {},
  {}, {}, {},
  {}, {}, {},
  {}, {}, {},
  {}, {}, {},
  {}, {}, {},
  {}, {}, {},
  {}, {}, {},
  {}, {}, {},
  {}, {}, {},
  {}, {}, {},
  {}, {}, {},
  {}, {}, {},
  {}, {}, {},
  {}, {}, {},
  {}, {}, {},
  {}, {}, {},
  {}, {}, {},
  {}, {}, {},
  {}, {}, {},
  {}, {}, {},
  {}, {}, {},
  {}, {}, {},
  {}, {}, {},
  {}, {}, {},
  {}, {}, {},
  {}, {}, {},
  {}, {}, {},
  {}, {}, {},
  {}, {}, {},
  {}, {}, {},
  {}, {}, {},
  {}, {}, {},
  {}, {}, {},
  {}, {}, {},
  {}, {}, {},
  {}, {}, {},
  {}, {}, {},
  {}, {}, {},
  {}, {}, {},
  {}, {}, {},
  {}, {}, {},
  {}, {}, {},
  {}, {}, {},
  {}, {}, {},
  {}, {}, {},
  {}, {}, {},
  {}, {}, {},
  {}, {}, {},
  {}, {}, {},
  {}, {}, {},
  {}, {}, {},
  {}, {}, {},
  {}, {}, {},
  {}, {}, {},
  {}, {}, {},
  {}, {}, {},
  {}, {}, {},
  {}, {}, {},
  {}, {}, {},
  {}, {}, {},
  {}, {}, {},
  {}, {}, {},
  {}, {}, {},
  {}, {}, {},
  {}, {}, {},
  {}, {}, {},
  {}, {}, {},
  {}, {}, {},
  {}, {}, {},
  {}, {}, {},
  {}, {}, {},
  {}, {}, {},
  {}, {}, {},
  {}, {}, {},
  {}, {}, {},
  {}, {}, {},
  {}, {}, {},
  {}, {}, {},
  {}, {}, {},
  {}, {}, {},
  {}, {}, {},
  {}, {}, {},
  {}, {}, {},
  {}, {}, {},
  {}, {}, {},
  {}, {}, {},
  {}, {}, {},
  {}, {}, {},
  {}, {}, {},
  {}, {}, {},
  {}, {}, {},
  {}, {}, {},
  {}, {}, {},
  {}, {}, {},
  {}, {}, {},
  {}, {}, {},
  {}, {}, {},
  {}, {}, {},
  {}, {}, {},
  {}, {}, {}
]);
